NAME : Unnamed.729.tour
COMMENT : Length = 729
COMMENT : Found by LKH [Keld Helsgaun] Sat Oct 04 21:50:01 2014
TYPE : TOUR
DIMENSION : 38
TOUR_SECTION
1
11
12
10
5
20
21
15
23
32
24
31
35
19
17
36
7
13
16
34
27
33
26
30
37
28
29
22
25
18
14
2
3
9
8
4
6
38
-1
EOF
